(set-logic QF_ABV)
(declare-fun arr1 () (Array (_ BitVec 32) (_ BitVec 32)))
(declare-fun arr2 () (Array (_ BitVec 32) (_ BitVec 32)))
(declare-fun arr3 () (Array (_ BitVec 32) (_ BitVec 32)))
(declare-fun arr4 () (Array (_ BitVec 32) (_ BitVec 32)))
(declare-fun arr5 () (Array (_ BitVec 32) (_ BitVec 32)))
(declare-fun arr6 () (Array (_ BitVec 32) (_ BitVec 32)))
(declare-fun arr7 () (Array (_ BitVec 32) (_ BitVec 32)))
(declare-fun arr8 () (Array (_ BitVec 32) (_ BitVec 32)))
(declare-fun arr9 () (Array (_ BitVec 32) (_ BitVec 32)))
(declare-fun idx1 () (_ BitVec 32))
(declare-fun idx2 () (_ BitVec 32))
(declare-fun idx3 () (_ BitVec 32))
(declare-fun val1 () (_ BitVec 32))
(declare-fun val2 () (_ BitVec 32))

(assert (= (select arr1 idx1) val1))
(assert (= (select arr2 idx2) val2))
(assert (= (select arr3 idx1) (select arr1 idx2)))
(assert (= (select (store arr4 idx1 val1) idx1) val1))
(assert (= (select (store arr5 idx2 val2) idx2) val2))
(assert (= (select (store arr6 idx3 (select arr1 idx1)) idx3) (select arr2 idx1)))
(assert (= (select (store arr7 idx1 (select arr2 idx2)) idx1) val1))
(assert (= (select (store (store arr8 idx1 val1) idx2 val2) idx1) val1))
(assert (= (select (store (store arr9 idx2 val2) idx3 val1) idx2) val2))
(assert (= (select (store (store arr1 idx1 (select arr3 idx1)) idx2 val2) idx1) (select arr4 idx2)))
(assert (= (select (store (store arr2 idx2 (select arr4 idx2)) idx3 val1) idx2) (select arr5 idx3)))
(assert (= (select (store (store (store arr3 idx1 val1) idx2 val2) idx3 (select arr6 idx1)) idx1) val1))
(assert (= (select (store (store (store arr4 idx2 val2) idx3 val1) idx1 (select arr7 idx2)) idx2) val2))
(assert (= (select (store (store (store arr5 idx3 (select arr8 idx3)) idx1 val1) idx2 val2) idx3) (select arr9 idx1)))
(assert (= (select (store (store (store (store arr6 idx1 val1) idx2 val2) idx3 (select arr1 idx1)) idx1 (select arr2 idx2)) idx1) val1))
(assert (= (select (store (store (store (store arr7 idx2 val2) idx3 val1) idx1 (select arr3 idx2)) idx2 (select arr4 idx3)) idx2) val2))
(assert (= (select arr8 idx1) (select arr9 idx2)))
(assert (= (select arr1 idx3) (select arr2 idx1)))
(assert (= (select arr3 idx2) (select arr4 idx3)))

(check-sat)